p cnf 30 41
-1 27 0 
-2 -1 28 0 
-3 28 0 
-4 -5 28 0 
-6 -7 28 0 
-1 28 0 
-8 -1 28 0 
-9 -10 28 0 
-11 28 0 
-2 -12 28 0 
-13 28 0 
-10 28 0 
-6 28 0 
-5 -1 28 0 
-9 -11 28 0 
-14 29 0 
-15 30 0 
-5 28 0 
-16 28 0 
-17 -1 28 0 
-10 -13 28 0 
-5 -13 28 0 
-3 -1 28 0 
-18 27 0 
-19 20 28 0 
-2 -20 19 28 0 
-10 -17 28 0 
-11 -5 28 0 
-21 -22 -1 28 0 
-3 -13 28 0 
-11 -10 28 0 
-23 -1 28 0 
-14 -13 28 0 
-8 -3 28 0 
-6 -24 28 0 
-2 -10 -13 28 0 
-25 -26 28 0 
-13 -26 28 0 
-14 -6 28 0 
-18 29 0 
-21 30 0 
